NAME:  tsp4
TYPE: ATSP
COMMENT: 17 city problem (Repetto)
DIMENSION:  17
EDGE_WEIGHT_TYPE: EXPLICIT
EDGE_WEIGHT_FORMAT: FULL_MATRIX
EDGE_WEIGHT_SECTION
999   100   1     1
100   999   1     1
 1     1   999   100
 1     1   100   999